40 40
20
3 3 25 4
3 4 25 0
5 3 35 17
3 6 0 10
3 7 0 33
3 8 25 7
3 9 25 31
3 10 0 0
3 12 0 21
3 16 25 15
3 40 28 0
4 4 31 36
4 14 31 22
4 22 31 0
3 5 0 16
5 4 35 0
5 8 35 32
5 12 35 20
5 13 35 4
22 40 3 0
